
processors      2  2  3 
units           real
atom_style      full

pair_style      hybrid  lj/class2/coul/long  9.5  10  lj/charmm/coul/long  8   10
bond_style      hybrid  class2  harmonic
angle_style     hybrid  class2  charmm
dihedral_style  hybrid  class2  charmm
#improper_style  hybrid  class2  harmonic
improper_style  class2

kspace_style    pppm 1e-4

read_data       Polyacrylic_acid.data

pair_modify     mix arithmetic
#pair_coeff      1*3  1*3   lj/class2/coul/long  9.5  10
pair_coeff      1*7 8*26  lj/charmm/coul/long  8    10

group   poly type <> 1 7
group   pro  type <> 8 26

special_bonds   charmm

neighbor        2.0 bin
neigh_modify    delay 5  #2 every 1

timestep        0.5

thermo_style    custom  step temp pxx pyy pzz lx ly lz
thermo          1000

#fix    0  all  box/relax  aniso  0  vmax 0.01 dilate all nreset 100

min_style       cg
min_modify      dmax 0.2
minimize        1.0e-10  1.0e-12  100000  1000000

#unfix  0

fix    1  all shake 1e-4 20 0 m 1.0
fix    2  pro nvt  temp  300  300  100 #npt temp 300.0 300.0 100.0  x  0  0  1000  y  0  0  1000
fix    3  poly  momentum  1  linear  1  1  1  angular
fix    4  pro   momentum  1  linear  1  1  0
fix    5  pro   gravity   -0.001  vector  0  0  1

dump   2  pro  dcd  1000   pro.dcd

run    50000

timestep  1

unfix  5
#compute 1 poly msd com yes
compute  1  pro  msd  com  yes
fix  msd_poly  pro  ave/time 10  1  10 c_1[1] c_1[2] c_1[3] c_1[4] mode scalar file pro_msd

dump   1  all  xyz  10000  Poly.xyz
#dump   2  all  xtc  1000   Poly.xtc
dump_modify 1 sort id element C H C C O O C H H H H H H C C C C C C N N N O O O P

run             10000000

